1307267
49,75,72,18,61,86,95,92,107,77,77,105,59,41,87,64,11,35,27,7,39,67,54,12,20,16,79,47,73,14,22,23,108,89,78,66,3,91,55,102,29,5,94,31,60,84,42,43,19,62,2,82,24,15,106,93,45,80,1,50,83,58,28,51,33,44,81,0,100,97,34,4,8,76,65,40,37,36,25,71,56,74,85,26,68,69,13,38,30,48,10,90,90,9,63,21,103,57,53,101,99,52,104,98,70,96,46,6,17
